&control
    calculation = 'bands'
    prefix='GaAs',
    pseudo_dir = '../../Pseudo/',
    outdir='./tmp'
 /
 &system
    ibrav=  2, 
    celldm(1) = 10.901,
    nat=  2, 
    ntyp= 2,
    nbnd = 12,
    ecutwfc = 43.0, ! energy in Ry
    ecutrho = 300. ! energy in Ry
 /
 &electrons
    diagonalization='david'
    conv_thr = 1.0e-8
    mixing_beta = 0.4
 /
ATOMIC_SPECIES
  Ga 69.723000d0  Ga.pbe-dnl-kjpaw_psl.1.0.0.UPF
  As 74.921600d0  As.pbe-n-kjpaw_psl.1.0.0.UPF

ATOMIC_POSITIONS crystal
 Ga -0.125 -0.125 -0.125
 As 0.125 0.125 0.125

K_POINTS tpiba_b
  5
   L 20
   gG 20
   X 0
   1.0 1.0 0.0 30
   gG  1

! Alternative you can provide all the k-points coordinates
!  K_POINTS crystal
!  386
!      0.0000000000     0.0000000000     0.0000000000 1
!      0.0116279070     0.0000000000     0.0116279070 1
!      0.0232558140     0.0000000000     0.0232558140 1
!      0.0348837209     0.0000000000     0.0348837209 1
!      0.0465116279     0.0000000000     0.0465116279 1
!      0.0581395349     0.0000000000     0.0581395349 1
!      0.0697674419     0.0000000000     0.0697674419 1
!      0.0813953488     0.0000000000     0.0813953488 1
!      0.0930232558     0.0000000000     0.0930232558 1
!      0.1046511628     0.0000000000     0.1046511628 1
!      0.1162790698     0.0000000000     0.1162790698 1
!      0.1279069767     0.0000000000     0.1279069767 1
!      0.1395348837     0.0000000000     0.1395348837 1
!      0.1511627907     0.0000000000     0.1511627907 1
!      0.1627906977     0.0000000000     0.1627906977 1
!      0.1744186047     0.0000000000     0.1744186047 1
!      0.1860465116     0.0000000000     0.1860465116 1
!      0.1976744186     0.0000000000     0.1976744186 1
!      0.2093023256     0.0000000000     0.2093023256 1
!      0.2209302326     0.0000000000     0.2209302326 1
!      0.2325581395     0.0000000000     0.2325581395 1
!      0.2441860465     0.0000000000     0.2441860465 1
!      0.2558139535     0.0000000000     0.2558139535 1
!      0.2674418605     0.0000000000     0.2674418605 1
!      0.2790697674     0.0000000000     0.2790697674 1
!      0.2906976744     0.0000000000     0.2906976744 1
!      0.3023255814     0.0000000000     0.3023255814 1
!      0.3139534884     0.0000000000     0.3139534884 1
!      0.3255813953     0.0000000000     0.3255813953 1
!      0.3372093023     0.0000000000     0.3372093023 1
!      0.3488372093     0.0000000000     0.3488372093 1
!      0.3604651163     0.0000000000     0.3604651163 1
!      0.3720930233     0.0000000000     0.3720930233 1
!      0.3837209302     0.0000000000     0.3837209302 1
!      0.3953488372     0.0000000000     0.3953488372 1
!      0.4069767442     0.0000000000     0.4069767442 1
!      0.4186046512     0.0000000000     0.4186046512 1
!      0.4302325581     0.0000000000     0.4302325581 1
!      0.4418604651     0.0000000000     0.4418604651 1
!      0.4534883721     0.0000000000     0.4534883721 1
!      0.4651162791     0.0000000000     0.4651162791 1
!      0.4767441860     0.0000000000     0.4767441860 1
!      0.4883720930     0.0000000000     0.4883720930 1
!      0.5000000000     0.0000000000     0.5000000000 1
!      0.5089285714     0.0178571429     0.5089285714 1
!      0.5178571429     0.0357142857     0.5178571429 1
!      0.5267857143     0.0535714286     0.5267857143 1
!      0.5357142857     0.0714285714     0.5357142857 1
!      0.5446428571     0.0892857143     0.5446428571 1
!      0.5535714286     0.1071428571     0.5535714286 1
!      0.5625000000     0.1250000000     0.5625000000 1
!      0.5714285714     0.1428571429     0.5714285714 1
!      0.5803571429     0.1607142857     0.5803571429 1
!      0.5892857143     0.1785714286     0.5892857143 1
!      0.5982142857     0.1964285714     0.5982142857 1
!      0.6071428571     0.2142857143     0.6071428571 1
!      0.6160714286     0.2321428571     0.6160714286 1
!      0.6250000000     0.2500000000     0.6250000000 1
!      0.3750000000     0.3750000000     0.7500000000 1
!      0.3668478261     0.3668478261     0.7336956522 1
!      0.3586956522     0.3586956522     0.7173913043 1
!      0.3505434783     0.3505434783     0.7010869565 1
!      0.3423913043     0.3423913043     0.6847826087 1
!      0.3342391304     0.3342391304     0.6684782609 1
!      0.3260869565     0.3260869565     0.6521739130 1
!      0.3179347826     0.3179347826     0.6358695652 1
!      0.3097826087     0.3097826087     0.6195652174 1
!      0.3016304348     0.3016304348     0.6032608696 1
!      0.2934782609     0.2934782609     0.5869565217 1
!      0.2853260870     0.2853260870     0.5706521739 1
!      0.2771739130     0.2771739130     0.5543478261 1
!      0.2690217391     0.2690217391     0.5380434783 1
!      0.2608695652     0.2608695652     0.5217391304 1
!      0.2527173913     0.2527173913     0.5054347826 1
!      0.2445652174     0.2445652174     0.4891304348 1
!      0.2364130435     0.2364130435     0.4728260870 1
!      0.2282608696     0.2282608696     0.4565217391 1
!      0.2201086957     0.2201086957     0.4402173913 1
!      0.2119565217     0.2119565217     0.4239130435 1
!      0.2038043478     0.2038043478     0.4076086957 1
!      0.1956521739     0.1956521739     0.3913043478 1
!      0.1875000000     0.1875000000     0.3750000000 1
!      0.1793478261     0.1793478261     0.3586956522 1
!      0.1711956522     0.1711956522     0.3423913043 1
!      0.1630434783     0.1630434783     0.3260869565 1
!      0.1548913043     0.1548913043     0.3097826087 1
!      0.1467391304     0.1467391304     0.2934782609 1
!      0.1385869565     0.1385869565     0.2771739130 1
!      0.1304347826     0.1304347826     0.2608695652 1
!      0.1222826087     0.1222826087     0.2445652174 1
!      0.1141304348     0.1141304348     0.2282608696 1
!      0.1059782609     0.1059782609     0.2119565217 1
!      0.0978260870     0.0978260870     0.1956521739 1
!      0.0896739130     0.0896739130     0.1793478261 1
!      0.0815217391     0.0815217391     0.1630434783 1
!      0.0733695652     0.0733695652     0.1467391304 1
!      0.0652173913     0.0652173913     0.1304347826 1
!      0.0570652174     0.0570652174     0.1141304348 1
!      0.0489130435     0.0489130435     0.0978260870 1
!      0.0407608696     0.0407608696     0.0815217391 1
!      0.0326086957     0.0326086957     0.0652173913 1
!      0.0244565217     0.0244565217     0.0489130435 1
!      0.0163043478     0.0163043478     0.0326086957 1
!      0.0081521739     0.0081521739     0.0163043478 1
!      0.0000000000     0.0000000000     0.0000000000 1
!      0.0135135135     0.0135135135     0.0135135135 1
!      0.0270270270     0.0270270270     0.0270270270 1
!      0.0405405405     0.0405405405     0.0405405405 1
!      0.0540540541     0.0540540541     0.0540540541 1
!      0.0675675676     0.0675675676     0.0675675676 1
!      0.0810810811     0.0810810811     0.0810810811 1
!      0.0945945946     0.0945945946     0.0945945946 1
!      0.1081081081     0.1081081081     0.1081081081 1
!      0.1216216216     0.1216216216     0.1216216216 1
!      0.1351351351     0.1351351351     0.1351351351 1
!      0.1486486486     0.1486486486     0.1486486486 1
!      0.1621621622     0.1621621622     0.1621621622 1
!      0.1756756757     0.1756756757     0.1756756757 1
!      0.1891891892     0.1891891892     0.1891891892 1
!      0.2027027027     0.2027027027     0.2027027027 1
!      0.2162162162     0.2162162162     0.2162162162 1
!      0.2297297297     0.2297297297     0.2297297297 1
!      0.2432432432     0.2432432432     0.2432432432 1
!      0.2567567568     0.2567567568     0.2567567568 1
!      0.2702702703     0.2702702703     0.2702702703 1
!      0.2837837838     0.2837837838     0.2837837838 1
!      0.2972972973     0.2972972973     0.2972972973 1
!      0.3108108108     0.3108108108     0.3108108108 1
!      0.3243243243     0.3243243243     0.3243243243 1
!      0.3378378378     0.3378378378     0.3378378378 1
!      0.3513513514     0.3513513514     0.3513513514 1
!      0.3648648649     0.3648648649     0.3648648649 1
!      0.3783783784     0.3783783784     0.3783783784 1
!      0.3918918919     0.3918918919     0.3918918919 1
!      0.4054054054     0.4054054054     0.4054054054 1
!      0.4189189189     0.4189189189     0.4189189189 1
!      0.4324324324     0.4324324324     0.4324324324 1
!      0.4459459459     0.4459459459     0.4459459459 1
!      0.4594594595     0.4594594595     0.4594594595 1
!      0.4729729730     0.4729729730     0.4729729730 1
!      0.4864864865     0.4864864865     0.4864864865 1
!      0.5000000000     0.5000000000     0.5000000000 1
!      0.5000000000     0.4916666667     0.5083333333 1
!      0.5000000000     0.4833333333     0.5166666667 1
!      0.5000000000     0.4750000000     0.5250000000 1
!      0.5000000000     0.4666666667     0.5333333333 1
!      0.5000000000     0.4583333333     0.5416666667 1
!      0.5000000000     0.4500000000     0.5500000000 1
!      0.5000000000     0.4416666667     0.5583333333 1
!      0.5000000000     0.4333333333     0.5666666667 1
!      0.5000000000     0.4250000000     0.5750000000 1
!      0.5000000000     0.4166666667     0.5833333333 1
!      0.5000000000     0.4083333333     0.5916666667 1
!      0.5000000000     0.4000000000     0.6000000000 1
!      0.5000000000     0.3916666667     0.6083333333 1
!      0.5000000000     0.3833333333     0.6166666667 1
!      0.5000000000     0.3750000000     0.6250000000 1
!      0.5000000000     0.3666666667     0.6333333333 1
!      0.5000000000     0.3583333333     0.6416666667 1
!      0.5000000000     0.3500000000     0.6500000000 1
!      0.5000000000     0.3416666667     0.6583333333 1
!      0.5000000000     0.3333333333     0.6666666667 1
!      0.5000000000     0.3250000000     0.6750000000 1
!      0.5000000000     0.3166666667     0.6833333333 1
!      0.5000000000     0.3083333333     0.6916666667 1
!      0.5000000000     0.3000000000     0.7000000000 1
!      0.5000000000     0.2916666667     0.7083333333 1
!      0.5000000000     0.2833333333     0.7166666667 1
!      0.5000000000     0.2750000000     0.7250000000 1
!      0.5000000000     0.2666666667     0.7333333333 1
!      0.5000000000     0.2583333333     0.7416666667 1
!      0.5000000000     0.2500000000     0.7500000000 1
!      0.5000000000     0.2380952381     0.7380952381 1
!      0.5000000000     0.2261904762     0.7261904762 1
!      0.5000000000     0.2142857143     0.7142857143 1
!      0.5000000000     0.2023809524     0.7023809524 1
!      0.5000000000     0.1904761905     0.6904761905 1
!      0.5000000000     0.1785714286     0.6785714286 1
!      0.5000000000     0.1666666667     0.6666666667 1
!      0.5000000000     0.1547619048     0.6547619048 1
!      0.5000000000     0.1428571429     0.6428571429 1
!      0.5000000000     0.1309523810     0.6309523810 1
!      0.5000000000     0.1190476190     0.6190476190 1
!      0.5000000000     0.1071428571     0.6071428571 1
!      0.5000000000     0.0952380952     0.5952380952 1
!      0.5000000000     0.0833333333     0.5833333333 1
!      0.5000000000     0.0714285714     0.5714285714 1
!      0.5000000000     0.0595238095     0.5595238095 1
!      0.5000000000     0.0476190476     0.5476190476 1
!      0.5000000000     0.0357142857     0.5357142857 1
!      0.5000000000     0.0238095238     0.5238095238 1
!      0.5000000000     0.0119047619     0.5119047619 1
!      0.5000000000     0.0000000000     0.5000000000 1
!      0.0000000000     0.0000000000     0.0000000000 1
!     -0.0116279070     0.0000000000    -0.0116279070 1
!     -0.0232558140     0.0000000000    -0.0232558140 1
!     -0.0348837209     0.0000000000    -0.0348837209 1
!     -0.0465116279     0.0000000000    -0.0465116279 1
!     -0.0581395349     0.0000000000    -0.0581395349 1
!     -0.0697674419     0.0000000000    -0.0697674419 1
!     -0.0813953488     0.0000000000    -0.0813953488 1
!     -0.0930232558     0.0000000000    -0.0930232558 1
!     -0.1046511628     0.0000000000    -0.1046511628 1
!     -0.1162790698     0.0000000000    -0.1162790698 1
!     -0.1279069767     0.0000000000    -0.1279069767 1
!     -0.1395348837     0.0000000000    -0.1395348837 1
!     -0.1511627907     0.0000000000    -0.1511627907 1
!     -0.1627906977     0.0000000000    -0.1627906977 1
!     -0.1744186047     0.0000000000    -0.1744186047 1
!     -0.1860465116     0.0000000000    -0.1860465116 1
!     -0.1976744186     0.0000000000    -0.1976744186 1
!     -0.2093023256     0.0000000000    -0.2093023256 1
!     -0.2209302326     0.0000000000    -0.2209302326 1
!     -0.2325581395     0.0000000000    -0.2325581395 1
!     -0.2441860465     0.0000000000    -0.2441860465 1
!     -0.2558139535     0.0000000000    -0.2558139535 1
!     -0.2674418605     0.0000000000    -0.2674418605 1
!     -0.2790697674     0.0000000000    -0.2790697674 1
!     -0.2906976744     0.0000000000    -0.2906976744 1
!     -0.3023255814     0.0000000000    -0.3023255814 1
!     -0.3139534884     0.0000000000    -0.3139534884 1
!     -0.3255813953     0.0000000000    -0.3255813953 1
!     -0.3372093023     0.0000000000    -0.3372093023 1
!     -0.3488372093     0.0000000000    -0.3488372093 1
!     -0.3604651163     0.0000000000    -0.3604651163 1
!     -0.3720930233     0.0000000000    -0.3720930233 1
!     -0.3837209302     0.0000000000    -0.3837209302 1
!     -0.3953488372     0.0000000000    -0.3953488372 1
!     -0.4069767442     0.0000000000    -0.4069767442 1
!     -0.4186046512     0.0000000000    -0.4186046512 1
!     -0.4302325581     0.0000000000    -0.4302325581 1
!     -0.4418604651     0.0000000000    -0.4418604651 1
!     -0.4534883721     0.0000000000    -0.4534883721 1
!     -0.4651162791     0.0000000000    -0.4651162791 1
!     -0.4767441860     0.0000000000    -0.4767441860 1
!     -0.4883720930     0.0000000000    -0.4883720930 1
!     -0.5000000000     0.0000000000    -0.5000000000 1
!     -0.5089285714    -0.0178571429    -0.5089285714 1
!     -0.5178571429    -0.0357142857    -0.5178571429 1
!     -0.5267857143    -0.0535714286    -0.5267857143 1
!     -0.5357142857    -0.0714285714    -0.5357142857 1
!     -0.5446428571    -0.0892857143    -0.5446428571 1
!     -0.5535714286    -0.1071428571    -0.5535714286 1
!     -0.5625000000    -0.1250000000    -0.5625000000 1
!     -0.5714285714    -0.1428571429    -0.5714285714 1
!     -0.5803571429    -0.1607142857    -0.5803571429 1
!     -0.5892857143    -0.1785714286    -0.5892857143 1
!     -0.5982142857    -0.1964285714    -0.5982142857 1
!     -0.6071428571    -0.2142857143    -0.6071428571 1
!     -0.6160714286    -0.2321428571    -0.6160714286 1
!     -0.6250000000    -0.2500000000    -0.6250000000 1
!     -0.3750000000    -0.3750000000    -0.7500000000 1
!     -0.3668478261    -0.3668478261    -0.7336956522 1
!     -0.3586956522    -0.3586956522    -0.7173913043 1
!     -0.3505434783    -0.3505434783    -0.7010869565 1
!     -0.3423913043    -0.3423913043    -0.6847826087 1
!     -0.3342391304    -0.3342391304    -0.6684782609 1
!     -0.3260869565    -0.3260869565    -0.6521739130 1
!     -0.3179347826    -0.3179347826    -0.6358695652 1
!     -0.3097826087    -0.3097826087    -0.6195652174 1
!     -0.3016304348    -0.3016304348    -0.6032608696 1
!     -0.2934782609    -0.2934782609    -0.5869565217 1
!     -0.2853260870    -0.2853260870    -0.5706521739 1
!     -0.2771739130    -0.2771739130    -0.5543478261 1
!     -0.2690217391    -0.2690217391    -0.5380434783 1
!     -0.2608695652    -0.2608695652    -0.5217391304 1
!     -0.2527173913    -0.2527173913    -0.5054347826 1
!     -0.2445652174    -0.2445652174    -0.4891304348 1
!     -0.2364130435    -0.2364130435    -0.4728260870 1
!     -0.2282608696    -0.2282608696    -0.4565217391 1
!     -0.2201086957    -0.2201086957    -0.4402173913 1
!     -0.2119565217    -0.2119565217    -0.4239130435 1
!     -0.2038043478    -0.2038043478    -0.4076086957 1
!     -0.1956521739    -0.1956521739    -0.3913043478 1
!     -0.1875000000    -0.1875000000    -0.3750000000 1
!     -0.1793478261    -0.1793478261    -0.3586956522 1
!     -0.1711956522    -0.1711956522    -0.3423913043 1
!     -0.1630434783    -0.1630434783    -0.3260869565 1
!     -0.1548913043    -0.1548913043    -0.3097826087 1
!     -0.1467391304    -0.1467391304    -0.2934782609 1
!     -0.1385869565    -0.1385869565    -0.2771739130 1
!     -0.1304347826    -0.1304347826    -0.2608695652 1
!     -0.1222826087    -0.1222826087    -0.2445652174 1
!     -0.1141304348    -0.1141304348    -0.2282608696 1
!     -0.1059782609    -0.1059782609    -0.2119565217 1
!     -0.0978260870    -0.0978260870    -0.1956521739 1
!     -0.0896739130    -0.0896739130    -0.1793478261 1
!     -0.0815217391    -0.0815217391    -0.1630434783 1
!     -0.0733695652    -0.0733695652    -0.1467391304 1
!     -0.0652173913    -0.0652173913    -0.1304347826 1
!     -0.0570652174    -0.0570652174    -0.1141304348 1
!     -0.0489130435    -0.0489130435    -0.0978260870 1
!     -0.0407608696    -0.0407608696    -0.0815217391 1
!     -0.0326086957    -0.0326086957    -0.0652173913 1
!     -0.0244565217    -0.0244565217    -0.0489130435 1
!     -0.0163043478    -0.0163043478    -0.0326086957 1
!     -0.0081521739    -0.0081521739    -0.0163043478 1
!      0.0000000000     0.0000000000     0.0000000000 1
!     -0.0135135135    -0.0135135135    -0.0135135135 1
!     -0.0270270270    -0.0270270270    -0.0270270270 1
!     -0.0405405405    -0.0405405405    -0.0405405405 1
!     -0.0540540541    -0.0540540541    -0.0540540541 1
!     -0.0675675676    -0.0675675676    -0.0675675676 1
!     -0.0810810811    -0.0810810811    -0.0810810811 1
!     -0.0945945946    -0.0945945946    -0.0945945946 1
!     -0.1081081081    -0.1081081081    -0.1081081081 1
!     -0.1216216216    -0.1216216216    -0.1216216216 1
!     -0.1351351351    -0.1351351351    -0.1351351351 1
!     -0.1486486486    -0.1486486486    -0.1486486486 1
!     -0.1621621622    -0.1621621622    -0.1621621622 1
!     -0.1756756757    -0.1756756757    -0.1756756757 1
!     -0.1891891892    -0.1891891892    -0.1891891892 1
!     -0.2027027027    -0.2027027027    -0.2027027027 1
!     -0.2162162162    -0.2162162162    -0.2162162162 1
!     -0.2297297297    -0.2297297297    -0.2297297297 1
!     -0.2432432432    -0.2432432432    -0.2432432432 1
!     -0.2567567568    -0.2567567568    -0.2567567568 1
!     -0.2702702703    -0.2702702703    -0.2702702703 1
!     -0.2837837838    -0.2837837838    -0.2837837838 1
!     -0.2972972973    -0.2972972973    -0.2972972973 1
!     -0.3108108108    -0.3108108108    -0.3108108108 1
!     -0.3243243243    -0.3243243243    -0.3243243243 1
!     -0.3378378378    -0.3378378378    -0.3378378378 1
!     -0.3513513514    -0.3513513514    -0.3513513514 1
!     -0.3648648649    -0.3648648649    -0.3648648649 1
!     -0.3783783784    -0.3783783784    -0.3783783784 1
!     -0.3918918919    -0.3918918919    -0.3918918919 1
!     -0.4054054054    -0.4054054054    -0.4054054054 1
!     -0.4189189189    -0.4189189189    -0.4189189189 1
!     -0.4324324324    -0.4324324324    -0.4324324324 1
!     -0.4459459459    -0.4459459459    -0.4459459459 1
!     -0.4594594595    -0.4594594595    -0.4594594595 1
!     -0.4729729730    -0.4729729730    -0.4729729730 1
!     -0.4864864865    -0.4864864865    -0.4864864865 1
!     -0.5000000000    -0.5000000000    -0.5000000000 1
!     -0.5000000000    -0.4916666667    -0.5083333333 1
!     -0.5000000000    -0.4833333333    -0.5166666667 1
!     -0.5000000000    -0.4750000000    -0.5250000000 1
!     -0.5000000000    -0.4666666667    -0.5333333333 1
!     -0.5000000000    -0.4583333333    -0.5416666667 1
!     -0.5000000000    -0.4500000000    -0.5500000000 1
!     -0.5000000000    -0.4416666667    -0.5583333333 1
!     -0.5000000000    -0.4333333333    -0.5666666667 1
!     -0.5000000000    -0.4250000000    -0.5750000000 1
!     -0.5000000000    -0.4166666667    -0.5833333333 1
!     -0.5000000000    -0.4083333333    -0.5916666667 1
!     -0.5000000000    -0.4000000000    -0.6000000000 1
!     -0.5000000000    -0.3916666667    -0.6083333333 1
!     -0.5000000000    -0.3833333333    -0.6166666667 1
!     -0.5000000000    -0.3750000000    -0.6250000000 1
!     -0.5000000000    -0.3666666667    -0.6333333333 1
!     -0.5000000000    -0.3583333333    -0.6416666667 1
!     -0.5000000000    -0.3500000000    -0.6500000000 1
!     -0.5000000000    -0.3416666667    -0.6583333333 1
!     -0.5000000000    -0.3333333333    -0.6666666667 1
!     -0.5000000000    -0.3250000000    -0.6750000000 1
!     -0.5000000000    -0.3166666667    -0.6833333333 1
!     -0.5000000000    -0.3083333333    -0.6916666667 1
!     -0.5000000000    -0.3000000000    -0.7000000000 1
!     -0.5000000000    -0.2916666667    -0.7083333333 1
!     -0.5000000000    -0.2833333333    -0.7166666667 1
!     -0.5000000000    -0.2750000000    -0.7250000000 1
!     -0.5000000000    -0.2666666667    -0.7333333333 1
!     -0.5000000000    -0.2583333333    -0.7416666667 1
!     -0.5000000000    -0.2500000000    -0.7500000000 1
!     -0.5000000000    -0.2380952381    -0.7380952381 1
!     -0.5000000000    -0.2261904762    -0.7261904762 1
!     -0.5000000000    -0.2142857143    -0.7142857143 1
!     -0.5000000000    -0.2023809524    -0.7023809524 1
!     -0.5000000000    -0.1904761905    -0.6904761905 1
!     -0.5000000000    -0.1785714286    -0.6785714286 1
!     -0.5000000000    -0.1666666667    -0.6666666667 1
!     -0.5000000000    -0.1547619048    -0.6547619048 1
!     -0.5000000000    -0.1428571429    -0.6428571429 1
!     -0.5000000000    -0.1309523810    -0.6309523810 1
!     -0.5000000000    -0.1190476190    -0.6190476190 1
!     -0.5000000000    -0.1071428571    -0.6071428571 1
!     -0.5000000000    -0.0952380952    -0.5952380952 1
!     -0.5000000000    -0.0833333333    -0.5833333333 1
!     -0.5000000000    -0.0714285714    -0.5714285714 1
!     -0.5000000000    -0.0595238095    -0.5595238095 1
!     -0.5000000000    -0.0476190476    -0.5476190476 1
!     -0.5000000000    -0.0357142857    -0.5357142857 1
!     -0.5000000000    -0.0238095238    -0.5238095238 1
!     -0.5000000000    -0.0119047619    -0.5119047619 1
!     -0.5000000000     0.0000000000    -0.5000000000 1
